NAME : amtsp
TYPE : ATSP
DIMENSION : 8
EDGE_WEIGHT_TYPE : EXPLICIT
EDGE_WEIGHT_FORMAT : FULL_MATRIX
EDGE_WEIGHT_SECTION
100000 -100000 100000 100000 100000 100000 100000 100000 
100000 100000 195 1786 2093 2723 2531 2610 
0 0 100000 505 706 2463 2307 2461 
0 0 505 100000 466 702 500 702 
0 0 706 466 100000 500 702 2388 
0 0 2463 702 500 100000 466 2200 
0 0 2307 500 702 466 100000 466 
0 0 2461 702 2388 2200 466 100000 
